
Log started (V12.10.0.0) Fri Apr 23 06:46:08 2021


Problem 'asset.lp' read.
Read time = 0.01 sec. (0.81 ticks)
New value for default parallel thread count: 1
New value for time limit in seconds: 150
Version identifier: 12.10.0.0 | 2019-11-26 | 843d4de
CPXPARAM_Threads                                 1
CPXPARAM_TimeLimit                               150
Found incumbent of value 0.000000 after 0.00 sec. (0.20 ticks)
Tried aggregator 3 times.
MIP Presolve eliminated 4053 rows and 857 columns.
MIP Presolve modified 5758 coefficients.
Aggregator did 1876 substitutions.
Reduced MIP has 2248 rows, 2763 columns, and 12421 nonzeros.
Reduced MIP has 2339 binaries, 358 generals, 0 SOSs, and 0 indicators.
Presolve time = 0.03 sec. (31.11 ticks)
Probing fixed 92 vars, tightened 17 bounds.
Probing time = 0.02 sec. (13.16 ticks)
Cover probing fixed 0 vars, tightened 7 bounds.
Tried aggregator 2 times.
Detecting symmetries...
MIP Presolve eliminated 241 rows and 144 columns.
MIP Presolve modified 344 coefficients.
Aggregator did 2 substitutions.
Reduced MIP has 2005 rows, 2617 columns, and 11202 nonzeros.
Reduced MIP has 2212 binaries, 341 generals, 0 SOSs, and 0 indicators.
Presolve time = 0.02 sec. (17.82 ticks)
Probing time = 0.01 sec. (3.24 ticks)
Clique table members: 7695.
MIP emphasis: balance optimality and feasibility.
MIP search method: dynamic search.
Parallel mode: none, using 1 thread.
Root relaxation solution time = 0.03 sec. (43.73 ticks)

        Nodes                                         Cuts/
   Node  Left     Objective  IInf  Best Integer    Best Bound    ItCnt     Gap

*     0+    0                            0.0000      935.0000              --- 
      0     0      845.7973   338        0.0000      845.7973      906     --- 
      0     0      835.3099   338        0.0000     Cuts: 336     1977     --- 
      0     0      835.0648   338        0.0000     Cuts: 601     3571     --- 
      0     0      834.6060   338        0.0000     Cuts: 601     4685     --- 
*     0+    0                           70.0000      834.6060              --- 
      0     0        cutoff             70.0000      834.6060     4685     --- 
      0     0      833.5474   338       70.0000     Cuts: 601     5871     --- 
      0     0      832.7370   338       70.0000     Cuts: 601     6517     --- 
Detecting symmetries...
      0     0      832.6298   338       70.0000     Cuts: 601     9446     --- 
*     0+    0                           90.0000      832.6298           825.14%
      0     0      832.5643   338       90.0000     Cuts: 601    10622  825.07%
      0     0      832.1301   338       90.0000     Cuts: 601    12990  824.59%
      0     0      831.6859   338       90.0000     Cuts: 601    14107  824.10%
*     0+    0                           95.0000      831.6859           775.46%
      0     0      831.5978   338       95.0000     Cuts: 599    15139  775.37%
      0     0      831.4391   338       95.0000     Cuts: 601    16638  775.20%
      0     0      831.3890   338       95.0000     Cuts: 601    17808  775.15%
      0     0      831.3820   338       95.0000     Cuts: 160    18992  775.14%
      0     0      831.3816   338       95.0000     Cuts: 601    19635  775.14%
*     0+    0                          115.0000      831.3816           622.94%
Detecting symmetries...
      0     2      831.3816   355      115.0000      831.3816    19635  622.94%
Elapsed time = 3.46 sec. (4727.74 ticks, tree = 0.01 MB, solutions = 4)
      9    11      830.0083   361      115.0000      831.3816    22218  622.94%
     14    15      826.4625   347      115.0000      831.3816    26886  622.94%
     18    19      824.8709   356      115.0000      831.3816    29666  622.94%
     21    22      804.9664   379      115.0000      831.3816    33121  622.94%
     23    24      816.6671   394      115.0000      831.3816    35508  622.94%
     30    31      830.6966   324      115.0000      831.3816    36548  622.94%
     34    35      824.1364   356      115.0000      831.3816    39238  622.94%
     39    40      830.3442   359      115.0000      831.3816    42230  622.94%
     40    41      822.5000   301      115.0000      831.3816    42333  622.94%
     57    58      826.0175   326      115.0000      831.3816    51531  622.94%
Elapsed time = 6.29 sec. (8752.27 ticks, tree = 0.43 MB, solutions = 4)
    120   113      755.0820   258      115.0000      831.3816    59860  622.94%
    269   235      825.7086   354      115.0000      831.3816    68272  622.94%
    299   262      797.0993   297      115.0000      831.3816    76112  622.94%
    340   302      796.9580   278      115.0000      831.3816    82900  622.94%
    408   362      830.7377   340      115.0000      831.3816    89816  622.94%
    440   394      815.8806   326      115.0000      831.3816    97656  622.94%
*   486+  438                          195.0000      831.3816           326.35%
*   487+  439                          335.0000      831.3816           148.17%
*   487+  439                          405.0000      831.3816           105.28%
*   487+  439                          410.0000      831.3816           102.78%
    487   441      831.3811   399      410.0000      831.3816   102035  102.78%
    536   490      814.3069   335      410.0000      831.3816   109170  102.78%

Performing restart 1

Repeating presolve.
Tried aggregator 1 time.
MIP Presolve modified 3618 coefficients.
Reduced MIP has 2005 rows, 2617 columns, and 9470 nonzeros.
Reduced MIP has 2212 binaries, 341 generals, 0 SOSs, and 0 indicators.
Presolve time = 0.01 sec. (8.13 ticks)
Tried aggregator 1 time.
Reduced MIP has 2005 rows, 2617 columns, and 9470 nonzeros.
Reduced MIP has 2212 binaries, 341 generals, 0 SOSs, and 0 indicators.
Presolve time = 0.01 sec. (6.49 ticks)
Represolve time = 0.07 sec. (46.82 ticks)
    597     0      807.0791   465      410.0000     Cuts: 534   120793   96.85%
    597     0      793.7082   465      410.0000     Cuts: 398   122052   93.59%
    597     0      785.7888   465      410.0000     Cuts: 491   123308   91.66%
    597     0      779.8023   465      410.0000     Cuts: 377   124463   90.20%
    597     0      776.0080   465      410.0000     Cuts: 326   125448   89.27%
    597     0      772.3023   465      410.0000     Cuts: 284   126487   88.37%
    597     0      770.1875   465      410.0000     Cuts: 224   127357   87.85%
    597     0      768.4231   465      410.0000     Cuts: 195   128210   87.42%
    597     0      766.4361   465      410.0000     Cuts: 228   129077   86.94%
    597     0      764.4617   465      410.0000     Cuts: 166   129981   86.45%
    597     0      763.7788   465      410.0000     Cuts: 233   130623   86.29%
    597     0      763.0185   465      410.0000     Cuts: 161   131302   86.10%
    597     0      761.8527   465      410.0000     Cuts: 210   132116   85.82%
    597     0      760.9462   465      410.0000     Cuts: 125   132773   85.60%
    597     0      760.3523   465      410.0000     Cuts: 122   133574   85.45%
    597     0      759.8261   465      410.0000     Cuts: 191   134341   85.32%
    597     0      759.1614   465      410.0000     Cuts: 151   134943   85.16%
    597     0      758.8970   465      410.0000     Cuts: 167   135274   85.10%
    597     0      758.7637   465      410.0000      Cuts: 92   135713   85.06%
    597     0      758.5806   465      410.0000     Cuts: 153   136027   85.02%
    597     0      758.3302   465      410.0000     Cuts: 168   136450   84.96%
    597     0      758.1498   465      410.0000     Cuts: 112   136695   84.91%
    597     0      757.9703   465      410.0000     Cuts: 116   136997   84.87%
    597     0      757.7993   465      410.0000     Cuts: 152   137301   84.83%
    597     0      757.6730   465      410.0000     Cuts: 107   137657   84.80%
    597     0      757.6005   465      410.0000     Cuts: 116   137792   84.78%
    597     0      757.4315   465      410.0000      Cuts: 79   138100   84.74%
    597     0      757.2788   465      410.0000     Cuts: 122   138633   84.70%
    597     0      757.2336   465      410.0000     Cuts: 135   138819   84.69%
    597     0      757.2001   465      410.0000      Cuts: 91   138962   84.68%
    597     0      756.9693   465      410.0000      Cuts: 51   139617   84.63%
    597     0      756.5720   465      410.0000     Cuts: 197   140003   84.53%
    597     0      756.3865   465      410.0000     Cuts: 209   140359   84.48%
    597     0      756.3134   465      410.0000     Cuts: 170   140661   84.47%
    597     2      756.3134   530      410.0000      756.1796   140661   84.43%
    599     4      756.0329   516      410.0000      756.0329   141323   84.40%
Elapsed time = 35.59 sec. (46602.48 ticks, tree = 0.01 MB, solutions = 8)
    602     7      755.4551   490      410.0000      755.4546   143438   84.26%
    606    11      744.7910   437      410.0000      755.4522   147087   84.26%
    608    13      751.9582   479      410.0000      755.4522   148395   84.26%
    613    18      750.7159   455      410.0000      755.4522   151322   84.26%
    617    22      741.9826   442      410.0000      755.4522   155380   84.26%
    624    29      747.4822   433      410.0000      755.4522   159549   84.26%
    631    36      731.2454   410      410.0000      755.4522   165414   84.26%
    637    42      738.6074   405      410.0000      755.4522   170269   84.26%
    643    48      727.9348   371      410.0000      755.4522   176079   84.26%
    649    54      725.5046   379      410.0000      755.4522   179898   84.26%
Elapsed time = 43.42 sec. (58861.27 ticks, tree = 0.32 MB, solutions = 8)
    655    60      719.4433   370      410.0000      755.4522   185044   84.26%
    657    62      719.1509   359      410.0000      755.4522   188248   84.26%
    664    69      704.1026   348      410.0000      755.4522   194107   84.26%
    673    78      712.6534   363      410.0000      755.4522   198276   84.26%
    679    84      698.6301   365      410.0000      755.4522   201048   84.26%
    695   100      704.4778   361      410.0000      755.4522   205746   84.26%
    711   116      693.3129   315      410.0000      755.4522   210346   84.26%
    730   134      684.7235   338      410.0000      755.4522   215560   84.26%
    758   154      680.6816   334      410.0000      755.4522   219736   84.26%
    780   174      650.5081   287      410.0000      755.4522   224716   84.26%
Elapsed time = 49.89 sec. (69174.98 ticks, tree = 2.39 MB, solutions = 8)
    819   205      654.5293   288      410.0000      755.4522   230494   84.26%
    834   214      745.9368   477      410.0000      755.2693   234499   84.21%
    840   220      724.6633   435      410.0000      755.2693   240466   84.21%
    850   230      724.1771   391      410.0000      755.2693   246178   84.21%
    864   244      718.3989   384      410.0000      755.2693   251429   84.21%
    877   257      711.7165   393      410.0000      755.2693   255381   84.21%
    892   272      691.9997   359      410.0000      755.2693   260408   84.21%
    906   286      696.9320   332      410.0000      755.2693   265651   84.21%
    926   306      679.0708   325      410.0000      755.2693   270574   84.21%
    943   323      647.9926   276      410.0000      755.2693   273910   84.21%
Elapsed time = 57.14 sec. (80242.62 ticks, tree = 5.46 MB, solutions = 8)
    971   351      642.9493   254      410.0000      755.2693   279186   84.21%
   1000   377      605.0759   186      410.0000      755.2693   284075   84.21%
   1042   403      741.8446   481      410.0000      754.4041   289044   84.00%
   1046   407      744.0808   442      410.0000      752.5932   292275   83.56%
   1055   416      695.0203   362      410.0000      752.5932   297349   83.56%
   1079   440      682.4921   338      410.0000      752.5932   301641   83.56%
   1104   465      661.4175   310      410.0000      752.5932   306606   83.56%
   1134   495      593.4634   241      410.0000      752.5932   311341   83.56%
   1160   515      742.6200   484      410.0000      752.3945   315018   83.51%
   1173   528      709.1306   388      410.0000      752.3945   319608   83.51%
Elapsed time = 64.60 sec. (91048.82 ticks, tree = 9.68 MB, solutions = 8)
   1199   554      659.3487   299      410.0000      752.3945   324674   83.51%
   1227   578      742.9333   493      410.0000      751.7804   330639   83.36%
   1232   583      722.7805   439      410.0000      751.7804   336024   83.36%
   1239   590      705.5453   406      410.0000      751.7804   339810   83.36%
   1250   601      678.5692   352      410.0000      751.7804   345582   83.36%
   1263   614      654.7584   288      410.0000      751.7804   352211   83.36%
   1277   628      649.6812   303      410.0000      751.7804   357039   83.36%
   1293   644      630.3828   268      410.0000      751.7804   362494   83.36%
   1317   668      625.8248   271      410.0000      751.7804   366708   83.36%
   1350   701      609.3731   229      410.0000      751.7804   372030   83.36%
Elapsed time = 71.92 sec. (101672.39 ticks, tree = 12.37 MB, solutions = 8)
*  1397+  738                          415.0000      751.7804            81.15%
*  1397+  738                          420.0000      751.7804            79.00%
   1397   740      575.7117   163      420.0000      751.7804   375725   79.00%
   1443   772      735.8846   419      420.0000      751.5455   379490   78.94%
   1452   781      724.2807   400      420.0000      751.5455   384545   78.94%
   1467   796      706.6508   341      420.0000      751.5455   389549   78.94%
   1485   814      677.5298   321      420.0000      751.5455   392348   78.94%
*  1497+  824                          430.0000      751.5455            74.78%
*  1497+  824                          440.0000      751.5455            70.81%
   1497   826      669.2731   299      440.0000      751.5455   394438   70.81%
   1549   876      592.9896   222      440.0000      751.5455   400233   70.81%
   1559   880      743.3174   457      440.0000      751.1626   404138   70.72%
   1570   891      731.5705   410      440.0000      751.1626   408935   70.72%
   1584   905      701.5559   379      440.0000      751.1626   413465   70.72%
Elapsed time = 80.03 sec. (112953.20 ticks, tree = 16.86 MB, solutions = 12)
*  1597+  916                          445.0000      751.1626            68.80%
*  1597+  916                          460.0000      751.1626            63.30%
   1597   918      652.0836   276      460.0000      751.1626   418057   63.30%
   1647   962      746.9175   488      460.0000      750.7140   423812   63.20%
   1658   973      711.0203   378      460.0000      750.7140   428069   63.20%
   1678   993      640.0937   260      460.0000      750.7140   433378   63.20%
*  1697+ 1010                          465.0000      750.7140            61.44%
*  1697+ 1010                          470.0000      750.7140            59.73%
   1697  1012      621.3065   234      470.0000      750.7140   434865   59.73%
   1751  1060      728.5198   449      470.0000      748.6431   440159   59.29%
   1762  1071      708.2674   393      470.0000      748.6431   444626   59.29%
   1792  1101      643.5089   312      470.0000      748.6431   449888   59.29%
   1797  1106      636.9354   288      470.0000      748.6431   450365   59.29%
   1852  1154      748.0768   481      470.0000      748.5966   456178   59.28%
Elapsed time = 88.15 sec. (124072.41 ticks, tree = 18.47 MB, solutions = 16)
   1860  1162      718.8395   375      470.0000      748.5966   461027   59.28%
   1873  1175      701.7354   346      470.0000      748.5966   466312   59.28%
   1880  1182      691.5424   333      470.0000      748.5966   468469   59.28%
   1897  1199      662.3699   295      470.0000      748.5966   472717   59.28%
   1917  1219      645.9640   273      470.0000      748.5966   478640   59.28%
   1969  1262      567.7888   149      470.0000      748.5966   483846   59.28%
   1992  1275      739.6589   450      470.0000      748.5942   486727   59.28%
*  1997+ 1278                          475.0000      748.5942            57.60%
   2000  1283      722.5532   390      475.0000      748.5942   490102   57.60%
   2028  1311      679.0128   341      475.0000      748.5942   496280   57.60%
   2160  1439      678.0318   311      475.0000      748.5774   512799   57.60%
Elapsed time = 98.61 sec. (138121.32 ticks, tree = 21.91 MB, solutions = 17)
*  2197+ 1474                          485.0000      748.5774            54.35%
   2251  1526      720.1189   415      485.0000      748.5745   529724   54.35%
   2345  1614      740.0424   464      485.0000      748.5323   547898   54.34%
   2401  1670      628.4307   243      485.0000      748.5323   560993   54.34%
   2475  1738      685.0164   348      485.0000      748.3630   579026   54.30%
   2595  1842      729.5198   457      485.0000      748.0761   598722   54.24%
*  2597+ 1842                          495.0000      748.0761            51.13%
   2693  1936        cutoff            495.0000      748.0761   616944   51.13%
   2760  1999        cutoff            495.0000      747.5458   634048   51.02%
   2797  2036      686.2336   340      495.0000      747.1796   647488   50.95%
   2928  2162      678.7975   329      495.0000      746.9093   666202   50.89%
   2997  2224      683.8975   331      495.0000      746.7534   681555   50.86%
Elapsed time = 127.30 sec. (178210.74 ticks, tree = 35.61 MB, solutions = 19)
   3150  2345      708.0576   369      495.0000      746.6794   705263   50.84%
   3227  2418      689.5994   385      495.0000      746.2515   717727   50.76%
   3379  2564      640.7982   321      495.0000      746.2437   741929   50.76%
Starting limited solution polishing.
   3497  2674      652.1916   316      495.0000      745.9336   761161   50.69%
   3581  2754      658.0218   318      495.0000      745.7205   784320   50.65%
   3700  2865      708.1987   416      495.0000      745.3246   805794   50.57%
   3797  2958      731.9318   439      495.0000      744.7909   819646   50.46%

GUB cover cuts applied:  75
Clique cuts applied:  95
Cover cuts applied:  38
Implied bound cuts applied:  166
Flow cuts applied:  16
Mixed integer rounding cuts applied:  176
Zero-half cuts applied:  163
Lift and project cuts applied:  24
Gomory fractional cuts applied:  5

Root node processing (before b&c):
  Real time             =    3.45 sec. (4718.84 ticks)
Sequential b&c:
  Real time             =  146.55 sec. (204592.42 ticks)
                          ------------
Total (root+branch&cut) =  150.00 sec. (209311.26 ticks)

Solution pool: 20 solutions saved.

MIP - Time limit exceeded, integer feasible:  Objective =  4.9500000000e+02
Current MIP best bound =  7.4479087196e+02 (gap = 249.791, 50.46%)
Solution time =  150.00 sec.  Iterations = 833334  Nodes = 3890 (3050)
Deterministic time = 209311.28 ticks  (1395.40 ticks/sec)


Incumbent solution
Variable Name           Solution Value
F                           495.000000
y133                          1.000000
y256                          1.000000
y50                           1.000000
y103                          1.000000
y29                           1.000000
y191                          1.000000
y66                           1.000000
y14                           1.000000
y187                          1.000000
y194                          1.000000
y210                          1.000000
y64                           1.000000
y150                          1.000000
y111                          1.000000
y77                           1.000000
y54                           1.000000
y61                           1.000000
y224                          1.000000
y159                          1.000000
y190                          1.000000
y80                           1.000000
y96                           1.000000
y116                          1.000000
y42                           1.000000
y65                           1.000000
y204                          1.000000
y101                          1.000000
y129                          1.000000
y244                          1.000000
x235x103x1                    1.000000
x235x191x1                    1.000000
x25x50x1                      1.000000
x249x29x1                     1.000000
x38x191x1                     1.000000
x38x66x1                      1.000000
x107x133x1                    2.000000
x237x14x1                     1.000000
x37x256x2                     1.000000
x30x77x2                      1.000000
x137x150x2                    1.000000
x43x66x2                      1.000000
x43x150x2                     1.000000
x83x116x2                     2.000000
x25x14x2                      1.000000
x249x29x2                     1.000000
x114x187x3                    2.000000
x30x54x3                      1.000000
x137x77x3                     1.000000
x7x50x3                       1.000000
x7x103x3                      1.000000
x154x54x3                     1.000000
x154x80x3                     1.000000
x237x256x3                    1.000000
x133x159x1                    2.000000
x256x129x2                    1.000000
x256x80x3                     1.000000
x50x64x1                      1.000000
x50x111x3                     1.000000
x103x224x1                    1.000000
x103x111x3                    1.000000
x29x194x1                     1.000000
x29x194x2                     1.000000
x191x224x1                    1.000000
x191x65x1                     1.000000
x66x42x1                      1.000000
x66x61x2                      1.000000
x14x204x1                     1.000000
x14x210x2                     1.000000
x187x210x3                    1.000000
x187x64x3                     1.000000
x194x42x1                     1.000000
x194x101x2                    1.000000
x210x0x2                      1.000000
x210x0x3                      1.000000
x64x0x1                       1.000000
x64x0x3                       1.000000
x150x190x2                    2.000000
x111x0x3                      2.000000
x77x61x2                      1.000000
x77x101x3                     1.000000
x54x96x3                      2.000000
x61x0x2                       2.000000
x224x0x1                      2.000000
x159x129x1                    1.000000
x159x244x1                    1.000000
x190x0x2                      2.000000
x80x0x3                       1.000000
x80x244x3                     1.000000
x96x0x3                       2.000000
x116x65x2                     1.000000
x116x204x2                    1.000000
x42x0x1                       2.000000
x65x0x1                       1.000000
x65x0x2                       1.000000
x204x0x1                      1.000000
x204x0x2                      1.000000
x101x0x2                      1.000000
x101x0x3                      1.000000
x129x0x1                      1.000000
x129x0x2                      1.000000
x244x0x1                      1.000000
x244x0x3                      1.000000
s37                           3.550000
s238                          5.280000
s58                           5.300000
s117                          5.340000
s71                           5.370000
s256                          6.448515
z37z256z2                     1.000000
s82                           5.680000
s73                           5.730000
s136                          5.750000
s246                          6.298227
s201                          6.764069
s29                           6.234773
s10                           6.741818
s245                          6.720000
s156                          7.880000
s66                           7.193621
s13                           7.980000
s14                           7.340000
s194                          7.702629
s210                          8.450000
s124                          7.530000
s4                            7.550000
z37z4z2                       1.000000
s209                          8.550000
z37z209z2                     1.000000
s150                          7.749448
z37z150z2                     1.000000
s3                            8.640000
s51                           7.640000
s39                           8.660000
s77                           7.660000
s61                           8.740000
z37z61z2                      1.000000
s190                          8.790000
z37z190z2                     1.000000
s208                          8.830000
z37z208z2                     1.000000
s132                          8.010000
s116                          8.070000
z37z116z2                     1.000000
s65                           9.084907
s204                          9.210000
s239                          9.230000
s143                          8.250000
z37z143z2                     1.000000
s101                          9.310000
s129                          9.380000
s114                          4.954990
s67                           5.710000
s121                          5.779445
s104                          5.770000
s50                           6.755237
s103                          6.778181
s21                           5.880000
s202                          6.883222
s147                          6.810000
s180                          7.676806
z114z180z3                    1.000000
s243                          7.380000
s187                          7.416668
z114z187z3                    1.000000
s215                          8.480000
s64                           8.510000
s169                          7.663068
z114z169z3                    1.000000
s111                          8.238519
z114z111z3                    1.000000
s54                           7.730000
z114z54z3                     1.000000
s80                           7.872045
z114z80z3                     1.000000
s242                          8.930000
z114z242z3                    1.000000
s96                           9.070000
z114z96z3                     1.000000
s130                          9.160000
z114z130z3                    1.000000
s188                          8.240000
z114z188z3                    1.000000
s157                          9.310000
s244                          9.440000
s235                          4.955000
z235z103z1                    1.000000
s158                          5.830000
s153                          5.990000
s69                           6.050000
s191                          7.234958
z235z191z1                    1.000000
s248                          7.950000
z235z248z1                    1.000000
s8                            8.270000
z235z8z1                      1.000000
s224                          8.750000
z235z224z1                    1.000000
s125                          8.760000
z235z125z1                    1.000000
s159                          7.831025
z235z159z1                    1.000000
s173                          9.010000
z235z173z1                    1.000000
s42                           9.110000
z235z42z1                     1.000000
s225                          9.110000
z235z225z1                    1.000000
s217                          9.200000
z235z217z1                    1.000000
s231                          8.210000
z235z231z1                    1.000000
s234                          8.240000
z235z234z1                    1.000000
s160                          9.380000
z235z160z1                    1.000000
s30                           4.939010
z30z180z3                     1.000000
z30z187z3                     1.000000
z30z4z2                       1.000000
z30z209z2                     1.000000
z30z169z3                     1.000000
z30z150z2                     1.000000
z30z111z3                     1.000000
z30z77z2                      1.000000
z30z54z3                      1.000000
z30z61z2                      1.000000
z30z190z2                     1.000000
z30z80z3                      1.000000
z30z208z2                     1.000000
z30z242z3                     1.000000
z30z96z3                      1.000000
z30z116z2                     1.000000
z30z130z3                     1.000000
z30z188z3                     1.000000
z30z143z2                     1.000000
s137                          4.982550
z137z180z3                    1.000000
z137z187z3                    1.000000
z137z4z2                      1.000000
z137z209z2                    1.000000
z137z169z3                    1.000000
z137z150z2                    1.000000
z137z111z3                    1.000000
z137z77z3                     1.000000
z137z54z3                     1.000000
z137z61z2                     1.000000
z137z190z2                    1.000000
z137z80z3                     1.000000
z137z208z2                    1.000000
z137z242z3                    1.000000
z137z96z3                     1.000000
z137z116z2                    1.000000
z137z130z3                    1.000000
z137z188z3                    1.000000
z137z143z2                    1.000000
s7                            5.066990
z7z50z3                       1.000000
z7z103z3                      1.000000
z7z202z3                      1.000000
z7z180z3                      1.000000
z7z187z3                      1.000000
z7z169z3                      1.000000
z7z111z3                      1.000000
z7z54z3                       1.000000
z7z80z3                       1.000000
z7z242z3                      1.000000
z7z96z3                       1.000000
z7z130z3                      1.000000
z7z188z3                      1.000000
s43                           5.266710
z43z66z2                      1.000000
z43z4z2                       1.000000
z43z209z2                     1.000000
z43z150z2                     1.000000
z43z61z2                      1.000000
z43z190z2                     1.000000
z43z208z2                     1.000000
z43z116z2                     1.000000
z43z143z2                     1.000000
s83                           5.027690
z83z4z2                       1.000000
z83z209z2                     1.000000
z83z150z2                     1.000000
z83z61z2                      1.000000
z83z190z2                     1.000000
z83z208z2                     1.000000
z83z116z2                     1.000000
z83z143z2                     1.000000
s25                           4.974090
z25z50z1                      1.000000
z25z191z1                     1.000000
z25z248z1                     1.000000
z25z8z1                       1.000000
z25z14z2                      1.000000
z25z4z2                       1.000000
z25z209z2                     1.000000
z25z150z2                     1.000000
z25z61z2                      1.000000
z25z224z1                     1.000000
z25z125z1                     1.000000
z25z159z1                     1.000000
z25z190z2                     1.000000
z25z208z2                     1.000000
z25z173z1                     1.000000
z25z116z2                     1.000000
z25z42z1                      1.000000
z25z225z1                     1.000000
z25z217z1                     1.000000
z25z231z1                     1.000000
z25z234z1                     1.000000
z25z143z2                     1.000000
z25z160z1                     1.000000
s249                          4.852650
s18                           5.270000
s32                           5.270000
s220                          5.290000
s133                          6.329206
z249z29z1                     1.000000
z249z29z2                     1.000000
z249z191z1                    1.000000
z249z248z1                    1.000000
z249z8z1                      1.000000
z249z4z2                      1.000000
z249z209z2                    1.000000
z249z150z2                    1.000000
z249z61z2                     1.000000
z249z224z1                    1.000000
z249z125z1                    1.000000
z249z159z1                    1.000000
z249z190z2                    1.000000
z249z208z2                    1.000000
z249z173z1                    1.000000
z249z116z2                    1.000000
z249z42z1                     1.000000
z249z225z1                    1.000000
z249z217z1                    1.000000
z249z231z1                    1.000000
z249z234z1                    1.000000
z249z143z2                    1.000000
z249z160z1                    1.000000
s154                          5.662680
z154z180z3                    1.000000
z154z169z3                    1.000000
z154z54z3                     1.000000
z154z80z3                     1.000000
z154z242z3                    1.000000
z154z96z3                     1.000000
z154z130z3                    1.000000
z154z188z3                    1.000000
s38                           5.656790
z38z191z1                     1.000000
z38z66z1                      1.000000
z38z8z1                       1.000000
z38z224z1                     1.000000
z38z125z1                     1.000000
z38z159z1                     1.000000
z38z173z1                     1.000000
z38z42z1                      1.000000
z38z225z1                     1.000000
z38z217z1                     1.000000
z38z231z1                     1.000000
z38z234z1                     1.000000
z38z160z1                     1.000000
s107                          5.050000
z107z133z1                    1.000000
z107z191z1                    1.000000
z107z248z1                    1.000000
z107z8z1                      1.000000
z107z224z1                    1.000000
z107z125z1                    1.000000
z107z159z1                    1.000000
z107z173z1                    1.000000
z107z42z1                     1.000000
z107z225z1                    1.000000
z107z217z1                    1.000000
z107z231z1                    1.000000
z107z234z1                    1.000000
z107z160z1                    1.000000
s237                          5.150000
z237z256z3                    1.000000
z237z191z1                    1.000000
z237z248z1                    1.000000
z237z8z1                      1.000000
z237z14z1                     1.000000
z237z180z3                    1.000000
z237z187z3                    1.000000
z237z169z3                    1.000000
z237z111z3                    1.000000
z237z54z3                     1.000000
z237z224z1                    1.000000
z237z125z1                    1.000000
z237z159z1                    1.000000
z237z80z3                     1.000000
z237z242z3                    1.000000
z237z173z1                    1.000000
z237z96z3                     1.000000
z237z42z1                     1.000000
z237z225z1                    1.000000
z237z130z3                    1.000000
z237z217z1                    1.000000
z237z231z1                    1.000000
z237z188z3                    1.000000
z237z234z1                    1.000000
z237z160z1                    1.000000
z18z125z1                     1.000000
z18z173z1                     1.000000
z18z42z1                      1.000000
z18z217z1                     1.000000
z18z231z1                     1.000000
z18z234z1                     1.000000
z18z160z1                     1.000000
s40                           5.380000
z32z125z1                     1.000000
z32z173z1                     1.000000
z32z42z1                      1.000000
z32z217z1                     1.000000
z32z231z1                     1.000000
z32z234z1                     1.000000
z32z160z1                     1.000000
z238z143z2                    1.000000
z220z125z1                    1.000000
z220z173z1                    1.000000
z220z42z1                     1.000000
z220z217z1                    1.000000
z220z231z1                    1.000000
z220z234z1                    1.000000
z220z160z1                    1.000000
z58z190z2                     1.000000
z58z208z2                     1.000000
z58z116z2                     1.000000
z58z143z2                     1.000000
z117z190z2                    1.000000
z117z208z2                    1.000000
z117z116z2                    1.000000
z117z143z2                    1.000000
z71z61z2                      1.000000
z71z190z2                     1.000000
z71z208z2                     1.000000
z71z116z2                     1.000000
z71z143z2                     1.000000
z133z125z1                    1.000000
z133z159z1                    1.000000
z133z173z1                    1.000000
z133z217z1                    1.000000
z133z160z1                    1.000000
z256z80z3                     1.000000
z256z129z2                    1.000000
z82z125z1                     1.000000
z82z173z1                     1.000000
z82z217z1                     1.000000
z136z125z1                    1.000000
z136z173z1                    1.000000
z136z217z1                    1.000000
z246z150z2                    1.000000
z104z125z1                    1.000000
z104z173z1                    1.000000
z104z217z1                    1.000000
z50z64z1                      1.000000
z50z111z3                     1.000000
z50z125z1                     1.000000
z50z173z1                     1.000000
z50z217z1                     1.000000
z103z111z3                    1.000000
z103z224z1                    1.000000
z103z125z1                    1.000000
z103z173z1                    1.000000
z103z217z1                    1.000000
z158z125z1                    1.000000
z158z173z1                    1.000000
z158z217z1                    1.000000
z21z125z1                     1.000000
z21z173z1                     1.000000
z21z217z1                     1.000000
z29z194z1                     1.000000
z29z194z2                     1.000000
z29z125z1                     1.000000
z29z173z1                     1.000000
z29z217z1                     1.000000
z153z125z1                    1.000000
z153z173z1                    1.000000
z153z217z1                    1.000000
z69z125z1                     1.000000
z69z173z1                     1.000000
z69z217z1                     1.000000
z191z224z1                    1.000000
z191z65z1                     1.000000
z66z61z2                      1.000000
z66z42z1                      1.000000
z14z210z2                     1.000000
z14z204z1                     1.000000
z187z210z3                    1.000000
z187z64z3                     1.000000
z187z96z3                     1.000000
z194z42z1                     1.000000
z194z101z2                    1.000000
z150z190z2                    1.000000
z77z61z2                      1.000000
z77z101z3                     1.000000
z54z96z3                      1.000000
z159z129z1                    1.000000
z159z244z1                    1.000000
z80z244z3                     1.000000
z116z65z2                     1.000000
z116z204z2                    1.000000
All other variables in the range 1-5499 are 0.
